parameters: neos-787933_10_1_5_0.030000 

SCIP version 6.0.1 [precision: 8 byte] [memory: block] [mode: optimized] [LP solver: SoPlex 4.0.1] [GitHash: a27ecc0]
Copyright (C) 2002-2019 Konrad-Zuse-Zentrum fuer Informationstechnik Berlin (ZIB)

read problem <instances/neos-787933.mps> ...

original problem has 236376 variables (236376 bin, 0 int, 0 impl, 0 cont) and 1897 constraints
read solution <10solution/neos-787933_1.sol> ...

check the feasibility of <10solution/neos-787933_1.sol> for problem <instances/neos-787933.mps> ...

  [linear] <R0315>: <C24074>[B] (+1) +<C24075>[B] (+1) +<C24076>[B] (+0) +<C24077>[B] (+1) +<C24078>[B] (+0) +<C24079>[B] (+1) +<C24080>[B] (+0) +<C24081>[B] (+1) +<C24082>[B] (+0) +<C24083>[B] (+0) +<C24084>[B] (+0) +<C24085>[B] (+0) +<C24086>[B] (+0) +<C24087>[B] (+0) +<C24088>[B] (+0) +<C24089>[B] (+0) +<C24090>[B] (+0) +<C24091>[B] (+0) +<C24092>[B] (+1) +<C24093>[B] (+0) +<C24094>[B] (+1) +<C24095>[B] (+0) +<C24096>[B] (+1) +<C24097>[B] (+0) +<C24098>[B] (+1) +<C24099>[B] (+0) +<C24100>[B] (+0) +<C24101>[B] (+0) +<C24102>[B] (+0) +<C24103>[B] (+0) +<C24104>[B] (+0) +<C24105>[B] (+0) +<C24106>[B] (+0) +<C24107>[B] (+1) +<C24108>[B] (+0) +<C24109>[B] (+1) +<C24110>[B] (+0) +<C24111>[B] (+1) +<C24112>[B] (+0) +<C24113>[B] (+1) +<C24114>[B] (+0) +<C24115>[B] (+1) +<C24116>[B] (+1) +<C24117>[B] (+1) +<C24118>[B] (+1) +<C24119>[B] (+1) +<C24120>[B] (+1) +<C24121>[B] (+1) +<C24122>[B] (+1) +<C24123>[B] (+1) +<C24124>[B] (+1) +<C24125>[B] (+0) +<C24126>[B] (+0) +<C24127>[B] (+1) +<C24128>[B] (+1) +<C24129>[B] (+0) +<C24130>[B] (+1) +<C24131>[B] (+1) +<C24132>[B] (+1) +<C24133>[B] (+0) +<C24134>[B] (+1) +<C24135>[B] (+0) +<C24136>[B] (+0) +<C24137>[B] (+1) +<C24138>[B] (+1) +<C24139>[B] (+0) +<C24140>[B] (+0) +<C24141>[B] (+1) +<C24142>[B] (+1) +<C24143>[B] (+0) +<C24144>[B] (+0) +<C24145>[B] (+0) +<C24146>[B] (+0) +<C24147>[B] (+0) +<C24148>[B] (+0) +<C24149>[B] (+1) +<C24150>[B] (+1) +<C24151>[B] (+0) +<C24152>[B] (+0) +<C24153>[B] (+0) +<C24154>[B] (+0) +<C24155>[B] (+1) +<C24156>[B] (+1) +<C24157>[B] (+0) +<C24158>[B] (+0) +<C24159>[B] (+1) +<C24160>[B] (+0) +<C24161>[B] (+0) +<C24162>[B] (+0) +<C24163>[B] (+0) +<C24164>[B] (+0) +<C24165>[B] (+0) +<C24166>[B] (+0) +<C24167>[B] (+1) +<C24168>[B] (+1) +<C24169>[B] (+0) +<C24170>[B] (+0) +<C24171>[B] (+0) +<C24172>[B] (+0) +<C24173>[B] (+0) +<C24174>[B] (+0) +<C24175>[B] (+0) +<C24176>[B] (+0) +<C24177>[B] (+1) +<C24178>[B] (+0) +<C24179>[B] (+1) +<C24180>[B] (+1) +<C24181>[B] (+1) +<C24182>[B] (+1) +<C24183>[B] (+1) +<C24184>[B] (+0) +<C24185>[B] (+0) +<C24186>[B] (+0) +<C24187>[B] (+0) +<C24188>[B] (+0) +<C24189>[B] (+0) +<C24190>[B] (+0) +<C24191>[B] (+0) +<C24192>[B] (+0) +<C24193>[B] (+1) +<C24194>[B] (+1) +<C24195>[B] (+0) +<C24196>[B] (+0) +<C24197>[B] (+0) +<C24198>[B] (+0) +<C24199>[B] (+1) +<C24200>[B] (+0) +<C24201>[B] (+0) +<C24202>[B] (+1) +<C24203>[B] (+0) +<C24204>[B] (+0) +<C24205>[B] (+1) +<C24206>[B] (+1) -133<C234794>[B] (+0) <= 0;
;
violation: right hand side is violated by 52
  [linear] <R1057>: <C122760>[B] (+0) +<C122761>[B] (+0) +<C122762>[B] (+0) +<C122763>[B] (+1) +<C122764>[B] (+0) +<C122765>[B] (+0) +<C122766>[B] (+0) +<C122767>[B] (+0) +<C122768>[B] (+0) +<C122769>[B] (+0) +<C122770>[B] (+1) +<C122771>[B] (+0) +<C122772>[B] (+1) +<C122773>[B] (+0) +<C122774>[B] (+0) +<C122775>[B] (+0) +<C122776>[B] (+0) +<C122777>[B] (+0) +<C122778>[B] (+0) +<C122779>[B] (+0) +<C122780>[B] (+0) +<C122781>[B] (+0) +<C122782>[B] (+0) +<C122783>[B] (+0) +<C122784>[B] (+0) +<C122785>[B] (+0) +<C122786>[B] (+1) +<C122787>[B] (+0) +<C122788>[B] (+1) +<C122789>[B] (+0) +<C122790>[B] (+0) +<C122791>[B] (+0) +<C122792>[B] (+0) +<C122793>[B] (+0) +<C122794>[B] (+0) +<C122795>[B] (+0) +<C122796>[B] (+0) +<C122797>[B] (+0) +<C122798>[B] (+0) +<C122799>[B] (+0) +<C122800>[B] (+0) +<C122801>[B] (+0) +<C122802>[B] (+0) +<C122803>[B] (+0) +<C122804>[B] (+0) +<C122805>[B] (+0) +<C122806>[B] (+0) +<C122807>[B] (+0) +<C122808>[B] (+0) +<C122809>[B] (+0) +<C122810>[B] (+0) +<C122811>[B] (+0) +<C122812>[B] (+0) +<C122813>[B] (+0) +<C122814>[B] (+0) +<C122815>[B] (+0) +<C122816>[B] (+0) +<C122817>[B] (+1) +<C122818>[B] (+0) +<C122819>[B] (+0) +<C122820>[B] (+0) +<C122821>[B] (+1) +<C122822>[B] (+0) +<C122823>[B] (+0) +<C122824>[B] (+0) +<C122825>[B] (+0) +<C122826>[B] (+0) +<C122827>[B] (+0) +<C122828>[B] (+0) +<C122829>[B] (+0) +<C122830>[B] (+0) +<C122831>[B] (+1) +<C122832>[B] (+0) +<C122833>[B] (+0) +<C122834>[B] (+0) +<C122835>[B] (+0) +<C122836>[B] (+0) +<C122837>[B] (+0) +<C122838>[B] (+0) +<C122839>[B] (+1) +<C122840>[B] (+0) +<C122841>[B] (+0) +<C122842>[B] (+0) +<C122843>[B] (+0) +<C122844>[B] (+0) +<C122845>[B] (+0) +<C122846>[B] (+0) +<C122847>[B] (+0) +<C122848>[B] (+0) +<C122849>[B] (+0) +<C122850>[B] (+0) +<C122851>[B] (+0) +<C122852>[B] (+0) +<C122853>[B] (+0) +<C122854>[B] (+0) +<C122855>[B] (+0) +<C122856>[B] (+0) +<C122857>[B] (+0) +<C122858>[B] (+0) +<C122859>[B] (+0) +<C122860>[B] (+0) +<C122861>[B] (+0) +<C122862>[B] (+0) +<C122863>[B] (+0) +<C122864>[B] (+0) +<C122865>[B] (+0) +<C122866>[B] (+0) +<C122867>[B] (+0) +<C122868>[B] (+0) +<C122869>[B] (+0) +<C122870>[B] (+0) +<C122871>[B] (+0) +<C122872>[B] (+0) +<C122873>[B] (+0) +<C122874>[B] (+0) +<C122875>[B] (+0) +<C122876>[B] (+0) +<C122877>[B] (+0) +<C122878>[B] (+0) +<C122879>[B] (+0) +<C122880>[B] (+0) +<C122881>[B] (+0) +<C122882>[B] (+0) +<C122883>[B] (+0) +<C122884>[B] (+0) +<C122885>[B] (+0) +<C122886>[B] (+0) +<C122887>[B] (+0) +<C122888>[B] (+0) +<C122889>[B] (+0) +<C122890>[B] (+1) +<C122891>[B] (+0) +<C122892>[B] (+0) -133<C235536>[B] (+0) <= 0;
;
violation: right hand side is violated by 10
  [linear] <R1257>: <C149360>[B] (+0) +<C149361>[B] (+0) +<C149362>[B] (+1) +<C149363>[B] (+0) +<C149364>[B] (+0) +<C149365>[B] (+0) +<C149366>[B] (+0) +<C149367>[B] (+0) +<C149368>[B] (+0) +<C149369>[B] (+0) +<C149370>[B] (+0) +<C149371>[B] (+0) +<C149372>[B] (+0) +<C149373>[B] (+0) +<C149374>[B] (+0) +<C149375>[B] (+0) +<C149376>[B] (+0) +<C149377>[B] (+0) +<C149378>[B] (+0) +<C149379>[B] (+0) +<C149380>[B] (+0) +<C149381>[B] (+0) +<C149382>[B] (+0) +<C149383>[B] (+0) +<C149384>[B] (+0) +<C149385>[B] (+0) +<C149386>[B] (+0) +<C149387>[B] (+0) +<C149388>[B] (+0) +<C149389>[B] (+0) +<C149390>[B] (+0) +<C149391>[B] (+0) +<C149392>[B] (+0) +<C149393>[B] (+0) +<C149394>[B] (+0) +<C149395>[B] (+1) +<C149396>[B] (+0) +<C149397>[B] (+0) +<C149398>[B] (+0) +<C149399>[B] (+0) +<C149400>[B] (+0) +<C149401>[B] (+0) +<C149402>[B] (+0) +<C149403>[B] (+0) +<C149404>[B] (+0) +<C149405>[B] (+0) +<C149406>[B] (+0) +<C149407>[B] (+0) +<C149408>[B] (+0) +<C149409>[B] (+0) +<C149410>[B] (+0) +<C149411>[B] (+0) +<C149412>[B] (+0) +<C149413>[B] (+0) +<C149414>[B] (+0) +<C149415>[B] (+0) +<C149416>[B] (+0) +<C149417>[B] (+0) +<C149418>[B] (+0) +<C149419>[B] (+0) +<C149420>[B] (+0) +<C149421>[B] (+0) +<C149422>[B] (+0) +<C149423>[B] (+0) +<C149424>[B] (+0) +<C149425>[B] (+0) +<C149426>[B] (+0) +<C149427>[B] (+0) +<C149428>[B] (+0) +<C149429>[B] (+0) +<C149430>[B] (+0) +<C149431>[B] (+0) +<C149432>[B] (+0) +<C149433>[B] (+0) +<C149434>[B] (+0) +<C149435>[B] (+0) +<C149436>[B] (+0) +<C149437>[B] (+0) +<C149438>[B] (+0) +<C149439>[B] (+0) +<C149440>[B] (+0) +<C149441>[B] (+1) +<C149442>[B] (+0) +<C149443>[B] (+0) +<C149444>[B] (+0) +<C149445>[B] (+0) +<C149446>[B] (+0) +<C149447>[B] (+0) +<C149448>[B] (+0) +<C149449>[B] (+1) +<C149450>[B] (+0) +<C149451>[B] (+1) +<C149452>[B] (+0) +<C149453>[B] (+0) +<C149454>[B] (+0) +<C149455>[B] (+0) +<C149456>[B] (+1) +<C149457>[B] (+0) +<C149458>[B] (+1) +<C149459>[B] (+0) +<C149460>[B] (+0) +<C149461>[B] (+0) +<C149462>[B] (+1) +<C149463>[B] (+0) +<C149464>[B] (+0) +<C149465>[B] (+0) +<C149466>[B] (+1) +<C149467>[B] (+0) +<C149468>[B] (+0) +<C149469>[B] (+0) +<C149470>[B] (+0) +<C149471>[B] (+0) +<C149472>[B] (+0) +<C149473>[B] (+0) +<C149474>[B] (+0) +<C149475>[B] (+0) +<C149476>[B] (+0) +<C149477>[B] (+0) +<C149478>[B] (+0) +<C149479>[B] (+0) +<C149480>[B] (+0) +<C149481>[B] (+0) +<C149482>[B] (+1) +<C149483>[B] (+1) +<C149484>[B] (+1) +<C149485>[B] (+0) +<C149486>[B] (+0) +<C149487>[B] (+0) +<C149488>[B] (+0) +<C149489>[B] (+0) +<C149490>[B] (+0) +<C149491>[B] (+0) +<C149492>[B] (+0) -133<C235736>[B] (+0) <= 0;
;
violation: right hand side is violated by 12
  [linear] <R1278>: <C152153>[B] (+0) +<C152154>[B] (+0) +<C152155>[B] (+0) +<C152156>[B] (+0) +<C152157>[B] (+0) +<C152158>[B] (+0) +<C152159>[B] (+0) +<C152160>[B] (+0) +<C152161>[B] (+0) +<C152162>[B] (+0) +<C152163>[B] (+0) +<C152164>[B] (+0) +<C152165>[B] (+0) +<C152166>[B] (+0) +<C152167>[B] (+0) +<C152168>[B] (+1) +<C152169>[B] (+0) +<C152170>[B] (+0) +<C152171>[B] (+0) +<C152172>[B] (+0) +<C152173>[B] (+0) +<C152174>[B] (+0) +<C152175>[B] (+0) +<C152176>[B] (+0) +<C152177>[B] (+0) +<C152178>[B] (+0) +<C152179>[B] (+0) +<C152180>[B] (+0) +<C152181>[B] (+0) +<C152182>[B] (+0) +<C152183>[B] (+0) +<C152184>[B] (+0) +<C152185>[B] (+0) +<C152186>[B] (+0) +<C152187>[B] (+0) +<C152188>[B] (+0) +<C152189>[B] (+0) +<C152190>[B] (+0) +<C152191>[B] (+0) +<C152192>[B] (+0) +<C152193>[B] (+0) +<C152194>[B] (+0) +<C152195>[B] (+0) +<C152196>[B] (+0) +<C152197>[B] (+0) +<C152198>[B] (+0) +<C152199>[B] (+0) +<C152200>[B] (+0) +<C152201>[B] (+0) +<C152202>[B] (+0) +<C152203>[B] (+0) +<C152204>[B] (+0) +<C152205>[B] (+0) +<C152206>[B] (+0) +<C152207>[B] (+0) +<C152208>[B] (+0) +<C152209>[B] (+0) +<C152210>[B] (+0) +<C152211>[B] (+0) +<C152212>[B] (+0) +<C152213>[B] (+0) +<C152214>[B] (+0) +<C152215>[B] (+0) +<C152216>[B] (+0) +<C152217>[B] (+0) +<C152218>[B] (+0) +<C152219>[B] (+0) +<C152220>[B] (+0) +<C152221>[B] (+0) +<C152222>[B] (+0) +<C152223>[B] (+0) +<C152224>[B] (+0) +<C152225>[B] (+0) +<C152226>[B] (+0) +<C152227>[B] (+0) +<C152228>[B] (+0) +<C152229>[B] (+0) +<C152230>[B] (+0) +<C152231>[B] (+1) +<C152232>[B] (+0) +<C152233>[B] (+0) +<C152234>[B] (+0) +<C152235>[B] (+0) +<C152236>[B] (+0) +<C152237>[B] (+0) +<C152238>[B] (+0) +<C152239>[B] (+0) +<C152240>[B] (+1) +<C152241>[B] (+1) +<C152242>[B] (+0) +<C152243>[B] (+1) +<C152244>[B] (+0) +<C152245>[B] (+0) +<C152246>[B] (+0) +<C152247>[B] (+0) +<C152248>[B] (+1) +<C152249>[B] (+0) +<C152250>[B] (+1) +<C152251>[B] (+0) +<C152252>[B] (+0) +<C152253>[B] (+0) +<C152254>[B] (+1) +<C152255>[B] (+0) +<C152256>[B] (+0) +<C152257>[B] (+0) +<C152258>[B] (+0) +<C152259>[B] (+0) +<C152260>[B] (+0) +<C152261>[B] (+0) +<C152262>[B] (+0) +<C152263>[B] (+0) +<C152264>[B] (+0) +<C152265>[B] (+0) +<C152266>[B] (+0) +<C152267>[B] (+0) +<C152268>[B] (+0) +<C152269>[B] (+0) +<C152270>[B] (+0) +<C152271>[B] (+0) +<C152272>[B] (+0) +<C152273>[B] (+0) +<C152274>[B] (+0) +<C152275>[B] (+0) +<C152276>[B] (+0) +<C152277>[B] (+0) +<C152278>[B] (+0) +<C152279>[B] (+0) +<C152280>[B] (+0) +<C152281>[B] (+0) +<C152282>[B] (+0) +<C152283>[B] (+0) +<C152284>[B] (+0) +<C152285>[B] (+0) -133<C235757>[B] (+0) <= 0;
;
violation: right hand side is violated by 8
The solution <10solution/neos-787933_1.sol> is not feasible to <instances/neos-787933.mps> 

Tring to reoptimize the problem <instances/neos-787933.mps> ...  

obj = 26.000000, k = 5, alpha = 26.000000 

n = 236376 

Start to add variable y and new constraints 

y have been released ! 

Finish to create the y and constraint ! 

n = 236376,  j = 236376 ! 

set all parameters to default! 

Reoptimization is enabled! 

Reoptimization parameter have been setted ! 

Stop parameter have been setted ! 

Memory for coefs have allocated ! 

Coefficients have been captured ! 

alpha = 26.000000, n = 472752, j = 236376, m = 5 
This is the 1-th iteration ! 

feasible solution found by trivial heuristic after 1.7 seconds, objective value 6.145776e+11
presolving:
(round 1, fast)       0 del vars, 236376 del conss, 0 add conss, 0 chg bounds, 0 chg sides, 0 chg coeffs, 0 upgd conss, 0 impls, 0 clqs
(round 2, exhaustive) 0 del vars, 236376 del conss, 0 add conss, 0 chg bounds, 0 chg sides, 0 chg coeffs, 238273 upgd conss, 0 impls, 0 clqs
(round 3, medium)     0 del vars, 238140 del conss, 234612 add conss, 0 chg bounds, 0 chg sides, 0 chg coeffs, 238273 upgd conss, 236376 impls, 234612 clqs
   (20.1s) probing: 132/236376 (0.1%) - 0 fixings, 0 aggregations, 128 implications, 0 bound changes
   (20.1s) probing aborted: solving stopped
presolving (4 rounds: 4 fast, 3 medium, 2 exhaustive):
 0 deleted vars, 238140 deleted constraints, 234612 added constraints, 0 tightened bounds, 0 added holes, 0 changed sides, 0 changed coefficients
 236504 implications, 234612 cliques
presolving was interrupted.
Presolving Time: 19.01
./script6: line 19: 19741 Segmentation fault      (core dumped) ./repair/build/repair $file $i $u $k $gap

real	0m23.647s
user	0m20.566s
sys	0m2.541s
